6 24 4 10
18 20 11 11 7 7 14 15 16 17 5 8 16 12 3 18 14 7 8 4 5 17 6 7 
1.49 6.94 2.78 2.99 0.44 1.02 3.19 6.04 3.18 6.11 1.73 3.04 1.21 6.93 4.51 6.43 2.83 0.16 2.16 0.27 2.7 7.09 1.65 6.96 
7.17 6 3.36 7.36 6.75 2.28 1.84 2.57 4.3 5.48 4.66 1.97 0.9 7.45 4.73 1.34 7.2 0.55 0.58 0.96 6.9 3.05 1.73 7.55 
0.16 2.39 5.4 7.84 5.56 6.13 1.32 4.04 1.18 6.76 5.84 3.35 1.03 0.22 3.28 3.44 6.24 3.44 3.97 5.52 0.67 2.5 2.58 2.22 
5.14 6.02 3 1.39 4.49 2.84 0.55 2.53 2.07 5.65 0.82 7.75 4.39 3.19 7.33 5 6.67 7.92 3.36 1.2 4.23 2.93 7.51 5.12 
4 4 4 4 4 4 4 4 4 4 4 4 4 4 4 4 4 4 4 4 4 4 4 4 
0.79 0.39 1.38 6.55 3.92 5.86 2.4 7.35 1.86 3.46 6.74 0.24 1.11 6.58 6.91 6.82 6.82 5.5 7.61 1.49 2.91 1.01 4.81 7.86 
1 1 1 1 1 1 1 1 1 1 1 1 1 1 1 1 1 1 1 1 1 1 1 1 
1 1 1 1 1 1 1 1 1 1 1 1 1 1 1 1 1 1 1 1 1 1 1 1 
1 1 1 1 1 1 1 1 1 1 1 1 1 1 1 1 1 1 1 1 1 1 1 1 
1 1 1 1 1 1 1 1 1 1 1 1 1 1 1 1 1 1 1 1 1 1 1 1 
1 1 1 1 1 1 1 1 1 1 1 1 1 1 1 1 1 1 1 1 1 1 1 1 
1 1 1 1 1 1 1 1 1 1 1 1 1 1 1 1 1 1 1 1 1 1 1 1 
0.01 0.01 0.01 0.01 0.01 0.01 0.01 0.01 0.01 0.01 0.01 0.01 0.01 0.01 0.01 0.01 0.01 0.01 0.01 0.01 0.01 0.01 0.01 0.01 
0.02 0.02 0.02 0.02 0.02 0.02 0.02 0.02 0.02 0.02 0.02 0.02 0.02 0.02 0.02 0.02 0.02 0.02 0.02 0.02 0.02 0.02 0.02 0.02 
0.03 0.03 0.03 0.03 0.03 0.03 0.03 0.03 0.03 0.03 0.03 0.03 0.03 0.03 0.03 0.03 0.03 0.03 0.03 0.03 0.03 0.03 0.03 0.03 
0.04 0.04 0.04 0.04 0.04 0.04 0.04 0.04 0.04 0.04 0.04 0.04 0.04 0.04 0.04 0.04 0.04 0.04 0.04 0.04 0.04 0.04 0.04 0.04 
0.05 0.05 0.05 0.05 0.05 0.05 0.05 0.05 0.05 0.05 0.05 0.05 0.05 0.05 0.05 0.05 0.05 0.05 0.05 0.05 0.05 0.05 0.05 0.05 
1 1 1 1 1 1 1 1 1 1 1 1 1 1 1 1 1 1 1 1 1 1 1 1 
